\ Model Truck_Transport_Optimization
\ LP format - for model browsing. Use MPS format to capture full model detail.
\ Signature: 0xb7a03aa5769120ba
Minimize
  2 x[1,1] + 2 x[1,2] + 2 x[1,3] + 2 x[1,4] + 3 x[2,1] + 3 x[2,2] + 3 x[2,3]
   + 3 x[2,4] + 2.5 x[3,1] + 2.5 x[3,2] + 2.5 x[3,3] + 2.5 x[3,4]
   + 3 x[4,1] + 3 x[4,2] + 3 x[4,3] + 3 x[4,4] + 2.2 x[5,1] + 2.2 x[5,2]
   + 2.2 x[5,3] + 2.2 x[5,4] + 2.8 x[6,1] + 2.8 x[6,2] + 2.8 x[6,3]
   + 2.8 x[6,4] + 2.4 x[7,1] + 2.4 x[7,2] + 2.4 x[7,3] + 2.4 x[7,4]
   + 3.2 x[8,1] + 3.2 x[8,2] + 3.2 x[8,3] + 3.2 x[8,4] + 2.1 x[9,1]
   + 2.1 x[9,2] + 2.1 x[9,3] + 2.1 x[9,4] + 2.9 x[10,1] + 2.9 x[10,2]
   + 2.9 x[10,3] + 2.9 x[10,4] + 500 y[1,1] + 300 y[2,1] + 400 y[3,1]
   + 250 y[4,1] + 450 y[5,1] + 280 y[6,1] + 420 y[7,1] + 200 y[8,1]
   + 480 y[9,1] + 260 y[10,1] + 500 u[1,2] + 500 u[1,3] + 500 u[1,4]
   + 300 u[2,2] + 300 u[2,3] + 300 u[2,4] + 400 u[3,2] + 400 u[3,3]
   + 400 u[3,4] + 250 u[4,2] + 250 u[4,3] + 250 u[4,4] + 450 u[5,2]
   + 450 u[5,3] + 450 u[5,4] + 280 u[6,2] + 280 u[6,3] + 280 u[6,4]
   + 420 u[7,2] + 420 u[7,3] + 420 u[7,4] + 200 u[8,2] + 200 u[8,3]
   + 200 u[8,4] + 480 u[9,2] + 480 u[9,3] + 480 u[9,4] + 260 u[10,2]
   + 260 u[10,3] + 260 u[10,4]
Subject To
 demand_1: x[1,1] + x[2,1] + x[3,1] + x[4,1] + x[5,1] + x[6,1] + x[7,1]
   + x[8,1] + x[9,1] + x[10,1] >= 1500
 demand_2: x[1,2] + x[2,2] + x[3,2] + x[4,2] + x[5,2] + x[6,2] + x[7,2]
   + x[8,2] + x[9,2] + x[10,2] >= 2000
 demand_3: x[1,3] + x[2,3] + x[3,3] + x[4,3] + x[5,3] + x[6,3] + x[7,3]
   + x[8,3] + x[9,3] + x[10,3] >= 1800
 demand_4: x[1,4] + x[2,4] + x[3,4] + x[4,4] + x[5,4] + x[6,4] + x[7,4]
   + x[8,4] + x[9,4] + x[10,4] >= 1000
 cap_1_1: x[1,1] - 1000 y[1,1] <= 0
 cap_1_2: x[1,2] - 1000 y[1,2] <= 0
 cap_1_3: x[1,3] - 1000 y[1,3] <= 0
 cap_1_4: x[1,4] - 1000 y[1,4] <= 0
 cap_2_1: x[2,1] - 800 y[2,1] <= 0
 cap_2_2: x[2,2] - 800 y[2,2] <= 0
 cap_2_3: x[2,3] - 800 y[2,3] <= 0
 cap_2_4: x[2,4] - 800 y[2,4] <= 0
 cap_3_1: x[3,1] - 1200 y[3,1] <= 0
 cap_3_2: x[3,2] - 1200 y[3,2] <= 0
 cap_3_3: x[3,3] - 1200 y[3,3] <= 0
 cap_3_4: x[3,4] - 1200 y[3,4] <= 0
 cap_4_1: x[4,1] - 600 y[4,1] <= 0
 cap_4_2: x[4,2] - 600 y[4,2] <= 0
 cap_4_3: x[4,3] - 600 y[4,3] <= 0
 cap_4_4: x[4,4] - 600 y[4,4] <= 0
 cap_5_1: x[5,1] - 900 y[5,1] <= 0
 cap_5_2: x[5,2] - 900 y[5,2] <= 0
 cap_5_3: x[5,3] - 900 y[5,3] <= 0
 cap_5_4: x[5,4] - 900 y[5,4] <= 0
 cap_6_1: x[6,1] - 700 y[6,1] <= 0
 cap_6_2: x[6,2] - 700 y[6,2] <= 0
 cap_6_3: x[6,3] - 700 y[6,3] <= 0
 cap_6_4: x[6,4] - 700 y[6,4] <= 0
 cap_7_1: x[7,1] - 1100 y[7,1] <= 0
 cap_7_2: x[7,2] - 1100 y[7,2] <= 0
 cap_7_3: x[7,3] - 1100 y[7,3] <= 0
 cap_7_4: x[7,4] - 1100 y[7,4] <= 0
 cap_8_1: x[8,1] - 500 y[8,1] <= 0
 cap_8_2: x[8,2] - 500 y[8,2] <= 0
 cap_8_3: x[8,3] - 500 y[8,3] <= 0
 cap_8_4: x[8,4] - 500 y[8,4] <= 0
 cap_9_1: x[9,1] - 1000 y[9,1] <= 0
 cap_9_2: x[9,2] - 1000 y[9,2] <= 0
 cap_9_3: x[9,3] - 1000 y[9,3] <= 0
 cap_9_4: x[9,4] - 1000 y[9,4] <= 0
 cap_10_1: x[10,1] - 650 y[10,1] <= 0
 cap_10_2: x[10,2] - 650 y[10,2] <= 0
 cap_10_3: x[10,3] - 650 y[10,3] <= 0
 cap_10_4: x[10,4] - 650 y[10,4] <= 0
 reserve_1: x[1,1] + x[2,1] + x[3,1] + x[4,1] + x[5,1] + x[6,1] + x[7,1]
   + x[8,1] + x[9,1] + x[10,1] - 900 y[1,1] - 720 y[2,1] - 1080 y[3,1]
   - 540 y[4,1] - 810 y[5,1] - 630 y[6,1] - 990 y[7,1] - 450 y[8,1]
   - 900 y[9,1] - 585 y[10,1] <= 0
 reserve_2: x[1,2] + x[2,2] + x[3,2] + x[4,2] + x[5,2] + x[6,2] + x[7,2]
   + x[8,2] + x[9,2] + x[10,2] - 900 y[1,2] - 720 y[2,2] - 1080 y[3,2]
   - 540 y[4,2] - 810 y[5,2] - 630 y[6,2] - 990 y[7,2] - 450 y[8,2]
   - 900 y[9,2] - 585 y[10,2] <= 0
 reserve_3: x[1,3] + x[2,3] + x[3,3] + x[4,3] + x[5,3] + x[6,3] + x[7,3]
   + x[8,3] + x[9,3] + x[10,3] - 900 y[1,3] - 720 y[2,3] - 1080 y[3,3]
   - 540 y[4,3] - 810 y[5,3] - 630 y[6,3] - 990 y[7,3] - 450 y[8,3]
   - 900 y[9,3] - 585 y[10,3] <= 0
 reserve_4: x[1,4] + x[2,4] + x[3,4] + x[4,4] + x[5,4] + x[6,4] + x[7,4]
   + x[8,4] + x[9,4] + x[10,4] - 900 y[1,4] - 720 y[2,4] - 1080 y[3,4]
   - 540 y[4,4] - 810 y[5,4] - 630 y[6,4] - 990 y[7,4] - 450 y[8,4]
   - 900 y[9,4] - 585 y[10,4] <= 0
 start_lb_1_2: y[1,1] - y[1,2] + u[1,2] >= 0
 start_ub1_1_2: - y[1,2] + u[1,2] <= 0
 start_ub2_1_2: y[1,1] + u[1,2] <= 1
 start_lb_1_3: y[1,2] - y[1,3] + u[1,3] >= 0
 start_ub1_1_3: - y[1,3] + u[1,3] <= 0
 start_ub2_1_3: y[1,2] + u[1,3] <= 1
 start_lb_1_4: y[1,3] - y[1,4] + u[1,4] >= 0
 start_ub1_1_4: - y[1,4] + u[1,4] <= 0
 start_ub2_1_4: y[1,3] + u[1,4] <= 1
 start_lb_2_2: y[2,1] - y[2,2] + u[2,2] >= 0
 start_ub1_2_2: - y[2,2] + u[2,2] <= 0
 start_ub2_2_2: y[2,1] + u[2,2] <= 1
 start_lb_2_3: y[2,2] - y[2,3] + u[2,3] >= 0
 start_ub1_2_3: - y[2,3] + u[2,3] <= 0
 start_ub2_2_3: y[2,2] + u[2,3] <= 1
 start_lb_2_4: y[2,3] - y[2,4] + u[2,4] >= 0
 start_ub1_2_4: - y[2,4] + u[2,4] <= 0
 start_ub2_2_4: y[2,3] + u[2,4] <= 1
 start_lb_3_2: y[3,1] - y[3,2] + u[3,2] >= 0
 start_ub1_3_2: - y[3,2] + u[3,2] <= 0
 start_ub2_3_2: y[3,1] + u[3,2] <= 1
 start_lb_3_3: y[3,2] - y[3,3] + u[3,3] >= 0
 start_ub1_3_3: - y[3,3] + u[3,3] <= 0
 start_ub2_3_3: y[3,2] + u[3,3] <= 1
 start_lb_3_4: y[3,3] - y[3,4] + u[3,4] >= 0
 start_ub1_3_4: - y[3,4] + u[3,4] <= 0
 start_ub2_3_4: y[3,3] + u[3,4] <= 1
 start_lb_4_2: y[4,1] - y[4,2] + u[4,2] >= 0
 start_ub1_4_2: - y[4,2] + u[4,2] <= 0
 start_ub2_4_2: y[4,1] + u[4,2] <= 1
 start_lb_4_3: y[4,2] - y[4,3] + u[4,3] >= 0
 start_ub1_4_3: - y[4,3] + u[4,3] <= 0
 start_ub2_4_3: y[4,2] + u[4,3] <= 1
 start_lb_4_4: y[4,3] - y[4,4] + u[4,4] >= 0
 start_ub1_4_4: - y[4,4] + u[4,4] <= 0
 start_ub2_4_4: y[4,3] + u[4,4] <= 1
 start_lb_5_2: y[5,1] - y[5,2] + u[5,2] >= 0
 start_ub1_5_2: - y[5,2] + u[5,2] <= 0
 start_ub2_5_2: y[5,1] + u[5,2] <= 1
 start_lb_5_3: y[5,2] - y[5,3] + u[5,3] >= 0
 start_ub1_5_3: - y[5,3] + u[5,3] <= 0
 start_ub2_5_3: y[5,2] + u[5,3] <= 1
 start_lb_5_4: y[5,3] - y[5,4] + u[5,4] >= 0
 start_ub1_5_4: - y[5,4] + u[5,4] <= 0
 start_ub2_5_4: y[5,3] + u[5,4] <= 1
 start_lb_6_2: y[6,1] - y[6,2] + u[6,2] >= 0
 start_ub1_6_2: - y[6,2] + u[6,2] <= 0
 start_ub2_6_2: y[6,1] + u[6,2] <= 1
 start_lb_6_3: y[6,2] - y[6,3] + u[6,3] >= 0
 start_ub1_6_3: - y[6,3] + u[6,3] <= 0
 start_ub2_6_3: y[6,2] + u[6,3] <= 1
 start_lb_6_4: y[6,3] - y[6,4] + u[6,4] >= 0
 start_ub1_6_4: - y[6,4] + u[6,4] <= 0
 start_ub2_6_4: y[6,3] + u[6,4] <= 1
 start_lb_7_2: y[7,1] - y[7,2] + u[7,2] >= 0
 start_ub1_7_2: - y[7,2] + u[7,2] <= 0
 start_ub2_7_2: y[7,1] + u[7,2] <= 1
 start_lb_7_3: y[7,2] - y[7,3] + u[7,3] >= 0
 start_ub1_7_3: - y[7,3] + u[7,3] <= 0
 start_ub2_7_3: y[7,2] + u[7,3] <= 1
 start_lb_7_4: y[7,3] - y[7,4] + u[7,4] >= 0
 start_ub1_7_4: - y[7,4] + u[7,4] <= 0
 start_ub2_7_4: y[7,3] + u[7,4] <= 1
 start_lb_8_2: y[8,1] - y[8,2] + u[8,2] >= 0
 start_ub1_8_2: - y[8,2] + u[8,2] <= 0
 start_ub2_8_2: y[8,1] + u[8,2] <= 1
 start_lb_8_3: y[8,2] - y[8,3] + u[8,3] >= 0
 start_ub1_8_3: - y[8,3] + u[8,3] <= 0
 start_ub2_8_3: y[8,2] + u[8,3] <= 1
 start_lb_8_4: y[8,3] - y[8,4] + u[8,4] >= 0
 start_ub1_8_4: - y[8,4] + u[8,4] <= 0
 start_ub2_8_4: y[8,3] + u[8,4] <= 1
 start_lb_9_2: y[9,1] - y[9,2] + u[9,2] >= 0
 start_ub1_9_2: - y[9,2] + u[9,2] <= 0
 start_ub2_9_2: y[9,1] + u[9,2] <= 1
 start_lb_9_3: y[9,2] - y[9,3] + u[9,3] >= 0
 start_ub1_9_3: - y[9,3] + u[9,3] <= 0
 start_ub2_9_3: y[9,2] + u[9,3] <= 1
 start_lb_9_4: y[9,3] - y[9,4] + u[9,4] >= 0
 start_ub1_9_4: - y[9,4] + u[9,4] <= 0
 start_ub2_9_4: y[9,3] + u[9,4] <= 1
 start_lb_10_2: y[10,1] - y[10,2] + u[10,2] >= 0
 start_ub1_10_2: - y[10,2] + u[10,2] <= 0
 start_ub2_10_2: y[10,1] + u[10,2] <= 1
 start_lb_10_3: y[10,2] - y[10,3] + u[10,3] >= 0
 start_ub1_10_3: - y[10,3] + u[10,3] <= 0
 start_ub2_10_3: y[10,2] + u[10,3] <= 1
 start_lb_10_4: y[10,3] - y[10,4] + u[10,4] >= 0
 start_ub1_10_4: - y[10,4] + u[10,4] <= 0
 start_ub2_10_4: y[10,3] + u[10,4] <= 1
 minup_t1_1: - y[1,1] + y[1,2] >= 0
 minup_1_2: y[1,2] + y[1,3] - 2 u[1,2] >= 0
 minup_1_3: y[1,3] + y[1,4] - 2 u[1,3] >= 0
 no_start_last_1: u[1,4] = 0
 minup_t1_2: - y[2,1] + y[2,2] >= 0
 minup_2_2: y[2,2] + y[2,3] - 2 u[2,2] >= 0
 minup_2_3: y[2,3] + y[2,4] - 2 u[2,3] >= 0
 no_start_last_2: u[2,4] = 0
 minup_t1_3: - y[3,1] + y[3,2] >= 0
 minup_3_2: y[3,2] + y[3,3] - 2 u[3,2] >= 0
 minup_3_3: y[3,3] + y[3,4] - 2 u[3,3] >= 0
 no_start_last_3: u[3,4] = 0
 minup_t1_4: - y[4,1] + y[4,2] >= 0
 minup_4_2: y[4,2] + y[4,3] - 2 u[4,2] >= 0
 minup_4_3: y[4,3] + y[4,4] - 2 u[4,3] >= 0
 no_start_last_4: u[4,4] = 0
 minup_t1_5: - y[5,1] + y[5,2] >= 0
 minup_5_2: y[5,2] + y[5,3] - 2 u[5,2] >= 0
 minup_5_3: y[5,3] + y[5,4] - 2 u[5,3] >= 0
 no_start_last_5: u[5,4] = 0
 minup_t1_6: - y[6,1] + y[6,2] >= 0
 minup_6_2: y[6,2] + y[6,3] - 2 u[6,2] >= 0
 minup_6_3: y[6,3] + y[6,4] - 2 u[6,3] >= 0
 no_start_last_6: u[6,4] = 0
 minup_t1_7: - y[7,1] + y[7,2] >= 0
 minup_7_2: y[7,2] + y[7,3] - 2 u[7,2] >= 0
 minup_7_3: y[7,3] + y[7,4] - 2 u[7,3] >= 0
 no_start_last_7: u[7,4] = 0
 minup_t1_8: - y[8,1] + y[8,2] >= 0
 minup_8_2: y[8,2] + y[8,3] - 2 u[8,2] >= 0
 minup_8_3: y[8,3] + y[8,4] - 2 u[8,3] >= 0
 no_start_last_8: u[8,4] = 0
 minup_t1_9: - y[9,1] + y[9,2] >= 0
 minup_9_2: y[9,2] + y[9,3] - 2 u[9,2] >= 0
 minup_9_3: y[9,3] + y[9,4] - 2 u[9,3] >= 0
 no_start_last_9: u[9,4] = 0
 minup_t1_10: - y[10,1] + y[10,2] >= 0
 minup_10_2: y[10,2] + y[10,3] - 2 u[10,2] >= 0
 minup_10_3: y[10,3] + y[10,4] - 2 u[10,3] >= 0
 no_start_last_10: u[10,4] = 0
 ramp_up_1_2: - x[1,1] + x[1,2] <= 300
 ramp_dn_1_2: x[1,1] - x[1,2] <= 300
 ramp_up_1_3: - x[1,2] + x[1,3] <= 300
 ramp_dn_1_3: x[1,2] - x[1,3] <= 300
 ramp_up_1_4: - x[1,3] + x[1,4] <= 300
 ramp_dn_1_4: x[1,3] - x[1,4] <= 300
 ramp_up_2_2: - x[2,1] + x[2,2] <= 300
 ramp_dn_2_2: x[2,1] - x[2,2] <= 300
 ramp_up_2_3: - x[2,2] + x[2,3] <= 300
 ramp_dn_2_3: x[2,2] - x[2,3] <= 300
 ramp_up_2_4: - x[2,3] + x[2,4] <= 300
 ramp_dn_2_4: x[2,3] - x[2,4] <= 300
 ramp_up_3_2: - x[3,1] + x[3,2] <= 300
 ramp_dn_3_2: x[3,1] - x[3,2] <= 300
 ramp_up_3_3: - x[3,2] + x[3,3] <= 300
 ramp_dn_3_3: x[3,2] - x[3,3] <= 300
 ramp_up_3_4: - x[3,3] + x[3,4] <= 300
 ramp_dn_3_4: x[3,3] - x[3,4] <= 300
 ramp_up_4_2: - x[4,1] + x[4,2] <= 300
 ramp_dn_4_2: x[4,1] - x[4,2] <= 300
 ramp_up_4_3: - x[4,2] + x[4,3] <= 300
 ramp_dn_4_3: x[4,2] - x[4,3] <= 300
 ramp_up_4_4: - x[4,3] + x[4,4] <= 300
 ramp_dn_4_4: x[4,3] - x[4,4] <= 300
 ramp_up_5_2: - x[5,1] + x[5,2] <= 300
 ramp_dn_5_2: x[5,1] - x[5,2] <= 300
 ramp_up_5_3: - x[5,2] + x[5,3] <= 300
 ramp_dn_5_3: x[5,2] - x[5,3] <= 300
 ramp_up_5_4: - x[5,3] + x[5,4] <= 300
 ramp_dn_5_4: x[5,3] - x[5,4] <= 300
 ramp_up_6_2: - x[6,1] + x[6,2] <= 300
 ramp_dn_6_2: x[6,1] - x[6,2] <= 300
 ramp_up_6_3: - x[6,2] + x[6,3] <= 300
 ramp_dn_6_3: x[6,2] - x[6,3] <= 300
 ramp_up_6_4: - x[6,3] + x[6,4] <= 300
 ramp_dn_6_4: x[6,3] - x[6,4] <= 300
 ramp_up_7_2: - x[7,1] + x[7,2] <= 300
 ramp_dn_7_2: x[7,1] - x[7,2] <= 300
 ramp_up_7_3: - x[7,2] + x[7,3] <= 300
 ramp_dn_7_3: x[7,2] - x[7,3] <= 300
 ramp_up_7_4: - x[7,3] + x[7,4] <= 300
 ramp_dn_7_4: x[7,3] - x[7,4] <= 300
 ramp_up_8_2: - x[8,1] + x[8,2] <= 300
 ramp_dn_8_2: x[8,1] - x[8,2] <= 300
 ramp_up_8_3: - x[8,2] + x[8,3] <= 300
 ramp_dn_8_3: x[8,2] - x[8,3] <= 300
 ramp_up_8_4: - x[8,3] + x[8,4] <= 300
 ramp_dn_8_4: x[8,3] - x[8,4] <= 300
 ramp_up_9_2: - x[9,1] + x[9,2] <= 300
 ramp_dn_9_2: x[9,1] - x[9,2] <= 300
 ramp_up_9_3: - x[9,2] + x[9,3] <= 300
 ramp_dn_9_3: x[9,2] - x[9,3] <= 300
 ramp_up_9_4: - x[9,3] + x[9,4] <= 300
 ramp_dn_9_4: x[9,3] - x[9,4] <= 300
 ramp_up_10_2: - x[10,1] + x[10,2] <= 300
 ramp_dn_10_2: x[10,1] - x[10,2] <= 300
 ramp_up_10_3: - x[10,2] + x[10,3] <= 300
 ramp_dn_10_3: x[10,2] - x[10,3] <= 300
 ramp_up_10_4: - x[10,3] + x[10,4] <= 300
 ramp_dn_10_4: x[10,3] - x[10,4] <= 300
Bounds
Binaries
 y[1,1] y[1,2] y[1,3] y[1,4] y[2,1] y[2,2] y[2,3] y[2,4] y[3,1] y[3,2]
 y[3,3] y[3,4] y[4,1] y[4,2] y[4,3] y[4,4] y[5,1] y[5,2] y[5,3] y[5,4]
 y[6,1] y[6,2] y[6,3] y[6,4] y[7,1] y[7,2] y[7,3] y[7,4] y[8,1] y[8,2]
 y[8,3] y[8,4] y[9,1] y[9,2] y[9,3] y[9,4] y[10,1] y[10,2] y[10,3] y[10,4]
 u[1,2] u[1,3] u[1,4] u[2,2] u[2,3] u[2,4] u[3,2] u[3,3] u[3,4] u[4,2]
 u[4,3] u[4,4] u[5,2] u[5,3] u[5,4] u[6,2] u[6,3] u[6,4] u[7,2] u[7,3]
 u[7,4] u[8,2] u[8,3] u[8,4] u[9,2] u[9,3] u[9,4] u[10,2] u[10,3] u[10,4]
End
